StudentsNr = 10;
InstructorsNr = 41;
DaysNr = 1;
SlotsPerDay = 40;
AvailabilitySlotsLenght = 10;
RoomNr = 2;
ProgrammNr = 1;
DegreeNr = 3;
RolesNr = 4;
CoursesNr = 3;
InstructorsProgramm = [{1}, {1}, {1}, {1}, {1}, {1}, {1}, {1}, {1}, {1}, {1}, {1}, {1}, {1}, {1}, {1}, {1}, {1}, {1}, {1}, {1}, {1}, {1}, {1}, {1}, {1}, {1}, {1}, {1}, {1}, {1}, {1}, {1}, {1}, {1}, {1}, {1}, {1}, {1}, {1}, {1}];
InstructorRolesPerProgramm = [|{1, 2, 3, 4, 9, 10, 11, 18, 20, 21, 24, 26, 27, 33, 36}, {10, 11, 12, 14, 15, 16, 17, 18, 23, 26, 35}, {1, 3, 5, 7, 15, 16, 17, 19, 20, 23, 24, 26, 27, 31, 36}, {3, 5, 7, 10, 12, 16, 21, 23, 24, 35, 37, 38}|];
InstructorsAvailability = [|0, 0, 1, 1, |0, 1, 1, 1, |1, 1, 1, 1, |0, 1, 1, 1, |0, 1, 0, 1, |1, 1, 0, 0, |1, 1, 1, 1, |0, 1, 1, 1, |1, 1, 1, 1, |1, 0, 1, 0, |0, 0, 1, 1, |1, 1, 1, 1, |0, 0, 1, 1, |1, 1, 0, 0, |1, 1, 1, 1, |0, 0, 1, 1, |0, 1, 1, 1, |0, 1, 1, 1, |0, 0, 0, 1, |1, 1, 1, 1, |0, 1, 1, 1, |1, 1, 1, 1, |0, 1, 1, 1, |1, 1, 1, 1, |0, 0, 1, 1, |0, 0, 1, 1, |0, 1, 1, 1, |0, 0, 0, 1, |1, 1, 1, 1, |1, 1, 1, 1, |1, 1, 1, 1, |1, 1, 0, 1, |0, 1, 1, 1, |0, 0, 0, 0, |1, 1, 1, 1, |1, 1, 1, 1, |0, 1, 1, 1, |1, 1, 1, 1, |1, 1, 1, 1, |0, 0, 1, 1, |0, 0, 0, 1|];
StudentsProgramm = [1, 1, 1, 1, 1, 1, 1, 1, 1, 1];
StudentsDegree = [3, 3, 1, 3, 2, 3, 2, 2, 2, 1];
StudentsSupervisorId = [16, 20, 16, 14, 40, 9, 38, 35, 16, 9];
StudentsCourseIds = [{2}, {3}, {1}, {3}, {}, {2}, {}, {}, {}, {2}];
StudentsAvailability = [|1, 0, 1, 1, |0, 0, 1, 1, |1, 1, 1, 1, |0, 0, 1, 1, |1, 1, 1, 1, |0, 0, 1, 1, |1, 1, 1, 1, |0, 1, 1, 1, |0, 0, 1, 1, |0, 0, 1, 1|];
TheoryticalMinCard = [0, 0, 0, 0, 1, 0, 0, 0, 0, 0];
CoursesInstructorIds = [{3, 6, 13, 17, 22, 24, 27, 30, 31, 33, 34, 35, 37, 41}, {1, 2, 3, 4, 6, 11, 12, 14, 15, 16, 18, 20, 21, 22, 23, 25, 26, 27, 28, 29, 30, 31, 35, 37, 38, 40}, {3, 18}];
RolesDemands = [4, 9, 13, 5];
RolesContinuity = [2];
ExamLen = [2, 2, 2, 2, 1, 2, 1, 1, 1, 2];
LunchTsMinLen = 0;
LunchStarts = [10..30];
SupervisorAvailable = 5;
OptimalLunchLenght = [1, 1];
OptimalStartTs = [1, 0];
OptimalFinishTs = [0, 40];
MinimizeRooms = 400;
RolesSoftContinuity = [|1, 2, 3, 4|0, 4, 1, 1|];
SameDegreeInRoom = 20;
Mergeability = 1;
